--- Job gams_0064_002_32_04_0.67_05_0.50_0.90_09_problem.txt Start 02/24/21 20:05:17 35.2.0 r33388c4 WEX-WEI x86 64bit/MS Windows
--- Applying:
    C:\Users\MariaSosnovskaya\GAMS35\gmsprmNT.txt
--- GAMS Parameters defined
    Input C:\Users\MariaSosnovskaya\Downloads\WfmGams3\problems\gams_0064_002_32_04_0.67_05_0.50_0.90_09_problem.txt
    ScrDir C:\Users\MariaSosnovskaya\Downloads\WfmGams3\225l\
    SysDir C:\Users\MariaSosnovskaya\GAMS35\
Licensee: GAMS Evaluation License                        S210124/0001AB-GEN
          Sobolev Institute of Mathematics, Discrete Optimization LaDCE1098
          C:\Users\MariaSosnovskaya\GAMS35\gamslice.txt
          Evaluation license: Not for commercial or production use
GAMS 35.2.0   Copyright (C) 1987-2021 GAMS Development. All rights reserved
--- Starting compilation
--- gams_0064_002_32_04_0.67_05_0.50_0.90_09_problem.txt(22) 3 Mb
--- . gams_0064_002_32_04_0.67_05_0.50_0.90_09.inc(6600) 3 Mb
--- gams_0064_002_32_04_0.67_05_0.50_0.90_09_problem.txt(98) 3 Mb
--- Starting execution: elapsed 0:00:00.035
--- gams_0064_002_32_04_0.67_05_0.50_0.90_09_problem.txt(6621) 4 Mb
--- Generating MIP model mymodel
--- gams_0064_002_32_04_0.67_05_0.50_0.90_09_problem.txt(6677) 9 Mb
---   16,769 rows  12,289 columns  56,193 non-zeroes
---   12,288 discrete-columns
--- Executing CPLEX (Solvelink=2): elapsed 0:00:00.158

IBM ILOG CPLEX   35.2.0 r33388c4 Released Jun 02, 2021 WEI x86 64bit/MS Window

--- GAMS/Cplex licensed for continuous and discrete problems.
--- Space for names approximately 0.61 Mb
--- Use option 'names no' to turn use of names off
--- GMO memory 6.31 Mb (peak 6.40 Mb)
--- Dictionary memory 0.00 Mb
--- Cplex 20.1.0.1 link memory 0.43 Mb (peak 1.98 Mb)
--- Starting Cplex

Version identifier: 20.1.0.1 | 2021-04-07 | 3a818710c
CPXPARAM_Advance                                 0
CPXPARAM_Threads                                 1
CPXPARAM_MIP_Display                             4
CPXPARAM_TimeLimit                               3600
CPXPARAM_MIP_Tolerances_AbsMIPGap                0
Generic callback                                 0x50
Tried aggregator 2 times.
MIP Presolve eliminated 8321 rows and 1026 columns.
Aggregator did 192 substitutions.
Reduced MIP has 8256 rows, 11072 columns, and 37282 nonzeros.
Reduced MIP has 11072 binaries, 0 generals, 0 SOSs, and 0 indicators.
Presolve time = 0.08 sec. (41.92 ticks)
Probing fixed 944 vars, tightened 0 bounds.
Probing changed sense of 60 constraints.
Probing time = 0.08 sec. (29.45 ticks)
Tried aggregator 16 times.
MIP Presolve eliminated 480 rows and 1004 columns.
Aggregator did 480 substitutions.
Reduced MIP has 7296 rows, 9588 columns, and 32454 nonzeros.
Reduced MIP has 9588 binaries, 0 generals, 0 SOSs, and 0 indicators.
Presolve time = 0.62 sec. (311.85 ticks)
Probing time = 0.02 sec. (4.35 ticks)
Tried aggregator 1 time.
Detecting symmetries...
Reduced MIP has 7296 rows, 9588 columns, and 32454 nonzeros.
Reduced MIP has 9588 binaries, 0 generals, 0 SOSs, and 0 indicators.
Presolve time = 0.05 sec. (28.94 ticks)
Probing time = 0.02 sec. (4.35 ticks)
Clique table members: 23873.
MIP emphasis: balance optimality and feasibility.
MIP search method: dynamic search.
Parallel mode: none, using 1 thread.
Tried aggregator 1 time.
No LP presolve or aggregator reductions.
Presolve time = 0.00 sec. (4.22 ticks)
Initializing dual steep norms . . .

Iteration log . . .
Iteration:     1   Dual objective     =          8565.000000
Perturbation started.
Iteration:   101   Dual objective     =          8565.000000
Iteration:   479   Dual objective     =          8564.999820
Iteration:   834   Dual objective     =          8564.999715
Iteration:  1197   Dual objective     =          8564.999604
Iteration:  1559   Dual objective     =          8564.999488
Iteration:  1918   Dual objective     =          8564.999366
Iteration:  2294   Dual objective     =          8564.999252
Iteration:  2631   Dual objective     =          8564.999211
Iteration:  2967   Dual objective     =          8564.999176
Iteration:  3284   Dual objective     =          8564.999149
Iteration:  3589   Dual objective     =          8564.999128
Iteration:  3884   Dual objective     =          8564.999110
Iteration:  4174   Dual objective     =          8564.999091
Iteration:  4460   Dual objective     =          8564.999076
Iteration:  4717   Dual objective     =          8564.999062
Iteration:  4983   Dual objective     =          8564.999049
Iteration:  5216   Dual objective     =          8564.999037
Iteration:  5412   Dual objective     =          8564.999031
Iteration:  5617   Dual objective     =          8564.999023
Iteration:  5815   Dual objective     =          8564.999016
Iteration:  5954   Dual objective     =          8564.999011
Iteration:  6097   Dual objective     =          8564.999006
Iteration:  6238   Dual objective     =          8564.999001
Iteration:  6369   Dual objective     =          8564.998998
Iteration:  6513   Dual objective     =          8564.998994
Iteration:  6645   Dual objective     =          8564.998992
Iteration:  6765   Dual objective     =          8564.998990
Iteration:  6891   Dual objective     =          8564.998989
Iteration:  7024   Dual objective     =          8564.998988
Iteration:  7142   Dual objective     =          8564.998987
Iteration:  7256   Dual objective     =          8564.998986
Iteration:  7371   Dual objective     =          8564.998986
Removing perturbation.

Iteration log . . .
Iteration:     1   Dual objective     =          8565.000000
Root relaxation solution time = 0.81 sec. (490.49 ticks)

        Nodes                                         Cuts/
   Node  Left     Objective  IInf  Best Integer    Best Bound    ItCnt     Gap

      0     0     8565.0000  1188                   8565.0000     7457         
      0     0     8565.0000   438                     Cuts: 9     7559         
      0     0     8565.0000   514                   Cuts: 106     8193         
*     0+    0                         8564.0000     8565.0000             0.01%
Found incumbent of value 8564.000000 after 3.88 sec. (2246.11 ticks)
*     0+    0                         8565.0000     8565.0000             0.00%
Found incumbent of value 8565.000000 after 3.92 sec. (2267.67 ticks)
      0     0        cutoff           8565.0000     8565.0000     8193    0.00%
      0     0        cutoff           8565.0000     8565.0000     8193    0.00%
Elapsed time = 3.92 sec. (2270.27 ticks, tree = 0.01 MB, solutions = 2)

Zero-half cuts applied:  15
Lift and project cuts applied:  7
Gomory fractional cuts applied:  15

Root node processing (before b&c):
  Real time             =    3.92 sec. (2270.90 ticks)
Sequential b&c:
  Real time             =    0.00 sec. (0.00 ticks)
                          ------------
Total (root+branch&cut) =    3.92 sec. (2270.90 ticks)

--- MIP status (101): integer optimal solution.
--- Cplex Time: 3.92sec (det. 2270.93 ticks)

--- Fixing integer variables and solving final LP...

Version identifier: 20.1.0.1 | 2021-04-07 | 3a818710c
CPXPARAM_Advance                                 2
CPXPARAM_Threads                                 1
CPXPARAM_MIP_Display                             4
CPXPARAM_TimeLimit                               3600
CPXPARAM_MIP_Tolerances_AbsMIPGap                0
Tried aggregator 1 time.
LP Presolve eliminated 16769 rows and 12290 columns.
All rows and columns eliminated.
Presolve time = 0.01 sec. (7.09 ticks)

--- Fixed MIP status (1): optimal.
--- Cplex Time: 0.01sec (det. 12.42 ticks)


Proven optimal solution
MIP Solution:         8565.000000    (8193 iterations, 0 nodes)
Final Solve:          8565.000000    (0 iterations)

Best possible:        8565.000000
Absolute gap:            0.000000
Relative gap:            0.000000

--- Reading solution for model mymodel
--- gams_0064_002_32_04_0.67_05_0.50_0.90_09_problem.txt(6677) 9 Mb  4 secs
--- Executing after solve: elapsed 0:00:04.257
--- gams_0064_002_32_04_0.67_05_0.50_0.90_09_problem.txt(6678) 9 Mb--- gams_0064_002_32_04_0.67_05_0.50_0.90_09_problem.txt(6698) 9 Mb
--- Putfile results C:\Users\MariaSosnovskaya\Downloads\WfmGams3\problems\gams_0064_002_32_04_0.67_05_0.50_0.90_09_results.txt
*** Status: Normal completion
--- Job gams_0064_002_32_04_0.67_05_0.50_0.90_09_problem.txt Stop 02/24/21 20:05:21 elapsed 0:00:04.278
